(declare-fun c_ack!31 () (_ BitVec 64))
(declare-fun a_ack!32 () (_ BitVec 32))
(declare-fun b_ack!30 () (_ BitVec 32))
(assert (not (fp.gt (fp.abs ((_ to_fp 11 53) c_ack!31))
            ((_ to_fp 11 53) #x40862642fefa39ef))))
(assert (not (bvslt b_ack!30 a_ack!32)))
(assert (not (bvslt a_ack!32 #x00000000)))
(assert (fp.eq ((_ to_fp 11 53) c_ack!31) ((_ to_fp 11 53) #x0000000000000000)))
(assert (bvsle #x00000000 (bvsub b_ack!30 a_ack!32)))
(assert (bvsle #x00000001 (bvsub b_ack!30 a_ack!32)))

(check-sat)
(exit)
